src/LKH/IO/anjos-70-04.tour
NAME : anjos-70-04.-145.tour
COMMENT : Length = -145
COMMENT : Found by LKH [Keld Helsgaun] Sun Apr 13 17:05:01 2025
TYPE : TOUR
DIMENSION : 70
TOUR_SECTION
1
23
21
50
10
3
6
30
61
46
26
34
63
48
5
47
31
8
18
38
57
56
11
2
22
43
25
45
65
17
27
14
9
37
40
68
36
39
12
33
64
7
54
19
20
70
29
67
66
13
35
41
59
28
53
49
62
24
42
52
51
16
15
60
58
4
32
44
69
55
-1
EOF
